solution status: optimal solution found
objective value:                     236449.576714002
d11(0,0)                                            1 	(obj:0)
d11(1,1)                                            1 	(obj:0)
d11(1,2)                                            1 	(obj:0)
d11(3,7)                                            1 	(obj:0)
d11(3,9)                                            1 	(obj:0)
d11(3,11)                                           1 	(obj:0)
d11(3,12)                                           1 	(obj:0)
d11(3,13)                                           1 	(obj:0)
d11(4,15)                                           1 	(obj:0)
d11(4,17)                                           1 	(obj:0)
d11(4,18)                                           1 	(obj:0)
d11(4,19)                                           1 	(obj:0)
d11(4,20)                                           1 	(obj:0)
d11(4,21)                                           1 	(obj:0)
d11(4,22)                                           1 	(obj:0)
d11(4,23)                                           1 	(obj:0)
d11(4,24)                                           1 	(obj:0)
d11(4,25)                                           1 	(obj:0)
d11(4,27)                                           1 	(obj:0)
d11(4,28)                                           1 	(obj:0)
d11(4,29)                                           1 	(obj:0)
d11(5,31)                                           1 	(obj:0)
d11(5,33)                                           1 	(obj:0)
d11(5,35)                                           1 	(obj:0)
d11(5,37)                                           1 	(obj:0)
d11(5,39)                                           1 	(obj:0)
d11(5,43)                                           1 	(obj:0)
d11(5,45)                                           1 	(obj:0)
d11(5,47)                                           1 	(obj:0)
d11(5,49)                                           1 	(obj:0)
d11(5,53)                                           1 	(obj:0)
d11(5,55)                                           1 	(obj:0)
d11(5,57)                                           1 	(obj:0)
d11(5,59)                                           1 	(obj:0)
d11(5,61)                                           1 	(obj:0)
d12(2,4)                                            1 	(obj:0)
d12(2,6)                                            1 	(obj:0)
d12(5,32)                                           1 	(obj:0)
d12(5,34)                                           1 	(obj:0)
d12(5,36)                                           1 	(obj:0)
d12(5,38)                                           1 	(obj:0)
d12(5,40)                                           1 	(obj:0)
d12(5,42)                                           1 	(obj:0)
d12(5,44)                                           1 	(obj:0)
d12(5,46)                                           1 	(obj:0)
d12(5,48)                                           1 	(obj:0)
d12(5,50)                                           1 	(obj:0)
d12(5,52)                                           1 	(obj:0)
d12(5,54)                                           1 	(obj:0)
d12(5,56)                                           1 	(obj:0)
d12(5,58)                                           1 	(obj:0)
d12(5,60)                                           1 	(obj:0)
d12(5,62)                                           1 	(obj:0)
d21(4,15)                                           1 	(obj:0)
d21(4,16)                                           1 	(obj:0)
d21(4,17)                                           1 	(obj:0)
d21(4,19)                                           1 	(obj:0)
d21(4,23)                                           1 	(obj:0)
d21(5,31)                                           1 	(obj:0)
d21(5,32)                                           1 	(obj:0)
d21(5,33)                                           1 	(obj:0)
d21(5,34)                                           1 	(obj:0)
d21(5,35)                                           1 	(obj:0)
d21(5,36)                                           1 	(obj:0)
d21(5,39)                                           1 	(obj:0)
d21(5,40)                                           1 	(obj:0)
d21(5,41)                                           1 	(obj:0)
d21(5,43)                                           1 	(obj:0)
d21(5,47)                                           1 	(obj:0)
d21(5,48)                                           1 	(obj:0)
d21(5,55)                                           1 	(obj:0)
y2(5,40)                             1385.48851144895 	(obj:0)
y2(5,42)                             1385.48851144895 	(obj:0)
y2(5,44)                             1385.48851144895 	(obj:0)
y2(5,46)                             1385.48851144895 	(obj:0)
y2(5,48)                             1385.48851144895 	(obj:0)
y2(5,50)                             1385.48851144895 	(obj:0)
y2(5,52)                             1385.48851144895 	(obj:0)
y2(5,54)                             1385.48851144895 	(obj:0)
y2(5,56)                             1385.48851144895 	(obj:0)
y2(5,58)                             1385.48851144895 	(obj:0)
y2(5,60)                             1385.48851144895 	(obj:0)
y2(5,62)                             1385.48851144895 	(obj:0)
STE(1,1)                             6614.99999999995 	(obj:0)
STE(0,0)                                        15750 	(obj:0)
STE(1,2)                              8273.2498988888 	(obj:0)
STE(2,3)                             5354.99999999995 	(obj:0)
STE(2,4)                             6671.21408587646 	(obj:0)
STE(2,5)                              7013.2498988888 	(obj:0)
STE(2,6)                             8329.46398476531 	(obj:0)
STE(3,7)                             2436.75010111114 	(obj:0)
STE(3,8)                             4094.99999999995 	(obj:0)
STE(3,9)                             3752.96418698764 	(obj:0)
STE(3,10)                            5411.21408587646 	(obj:0)
STE(3,11)                            4094.99999999998 	(obj:0)
STE(3,12)                             5753.2498988888 	(obj:0)
STE(3,13)                            5411.21408587649 	(obj:0)
STE(3,14)                            7069.46398476531 	(obj:0)
STE(4,15)                           -481.499797777664 	(obj:0)
STE(4,16)                            1176.75010111114 	(obj:0)
STE(4,17)                            1176.75010111115 	(obj:0)
STE(4,18)                            2834.99999999995 	(obj:0)
STE(4,19)                            834.714288098841 	(obj:0)
STE(4,20)                            2492.96418698758 	(obj:0)
STE(4,21)                            2492.96418698766 	(obj:0)
STE(4,22)                            4151.21408587646 	(obj:0)
STE(4,23)                            1176.75010111118 	(obj:0)
STE(4,24)                            2834.99999999998 	(obj:0)
STE(4,25)                                        2835 	(obj:0)
STE(4,26)                             4493.2498988888 	(obj:0)
STE(4,27)                            2492.96418698769 	(obj:0)
STE(4,28)                            4151.21408587649 	(obj:0)
STE(4,29)                            4151.21408587651 	(obj:0)
STE(4,30)                            5809.46398476531 	(obj:0)
STE(5,31)                           -1741.49979777766 	(obj:0)
STE(5,32)                           -425.285711901158 	(obj:0)
STE(5,33)                           -83.2498988888647 	(obj:0)
STE(5,34)                            1232.96418698764 	(obj:0)
STE(5,35)                           -83.2498988888458 	(obj:0)
STE(5,36)                            1232.96418698766 	(obj:0)
STE(5,37)                            1574.99999999995 	(obj:0)
STE(5,38)                            2891.21408587646 	(obj:0)
STE(5,39)                           -425.285711901159 	(obj:0)
STE(5,40)                            890.928373975348 	(obj:0)
STE(5,41)                            1232.96418698758 	(obj:0)
STE(5,42)                            2549.17827286408 	(obj:0)
STE(5,43)                            1232.96418698766 	(obj:0)
STE(5,44)                            2549.17827286417 	(obj:0)
STE(5,45)                            2891.21408587646 	(obj:0)
STE(5,46)                            4207.42817175296 	(obj:0)
STE(5,47)                           -83.2498988888167 	(obj:0)
STE(5,48)                            1232.96418698769 	(obj:0)
STE(5,49)                            1574.99999999998 	(obj:0)
STE(5,50)                            2891.21408587649 	(obj:0)
STE(5,51)                                        1575 	(obj:0)
STE(5,52)                            2891.21408587651 	(obj:0)
STE(5,53)                             3233.2498988888 	(obj:0)
STE(5,54)                            4549.46398476531 	(obj:0)
STE(5,55)                            1232.96418698769 	(obj:0)
STE(5,56)                             2549.1782728642 	(obj:0)
STE(5,57)                            2891.21408587649 	(obj:0)
STE(5,58)                              4207.428171753 	(obj:0)
STE(5,59)                            2891.21408587651 	(obj:0)
STE(5,60)                            4207.42817175301 	(obj:0)
STE(5,61)                            4549.46398476531 	(obj:0)
STE(5,62)                            5865.67807064181 	(obj:0)
AVE(1)                                   3216.9117036 	(obj:0)
WB(2)                                    3366.1541945 	(obj:0)
AVE(2)                                   3366.1541945 	(obj:0)
AVE(3)                                   3515.3966854 	(obj:0)
AVE(4)                               3515.39406545826 	(obj:0)
WB(5)                                3167.15385943327 	(obj:0)
AVE(5)                               3167.15385943327 	(obj:0)
WG(1)                                    3216.9117036 	(obj:10)
WG(3)                                3515.39668539998 	(obj:10)
WG(4)                                3515.39406545817 	(obj:10)
BG(1)                                6688.64109231845 	(obj:10)
BG(2)                                2673.40993877551 	(obj:10)
BG(3)                                 680.89581357959 	(obj:10)
BG(4)                                680.898433521376 	(obj:10)
BG(5)                                2673.40993877559 	(obj:10)
y1(1,1)                              7087.50000000004 	(obj:0)
y1(1,2)                              5595.07509100008 	(obj:0)
y1(3,7)                              1492.42490899994 	(obj:0)
y1(3,9)                              1492.42490899994 	(obj:0)
y1(3,11)                             1492.42490899994 	(obj:0)
y1(3,13)                             1492.42490899994 	(obj:0)
y1(4,15)                             1492.42490899992 	(obj:0)
y1(4,17)                             1492.42490899992 	(obj:0)
y1(4,19)                             1492.42490899992 	(obj:0)
y1(4,21)                             1492.42490899992 	(obj:0)
y1(4,23)                             1492.42490899992 	(obj:0)
y1(4,25)                             1492.42490899992 	(obj:0)
y1(4,27)                             1492.42490899992 	(obj:0)
y1(4,29)                             1492.42490899992 	(obj:0)
y2(2,4)                              1385.48851144895 	(obj:0)
y2(2,6)                              1385.48851144895 	(obj:0)
y2(5,32)                             1385.48851144895 	(obj:0)
y2(5,34)                             1385.48851144895 	(obj:0)
y2(5,36)                             1385.48851144895 	(obj:0)
y2(5,38)                             1385.48851144895 	(obj:0)
